(declare-fun var0 () String)
(assert (str.in.re var0 (re.++ (re.* (re.+ (re.union (re.* (re.+ (re.* (re.* (re.* (re.union (re.union (re.* (re.+ (str.to.re "NNN"))) (re.+ (re.+ (str.to.re "OO")))) (re.* (re.+ (re.+ (str.to.re "P")))))))))) (re.union (re.* (re.union (re.+ (re.+ (re.+ (re.union (re.+ (re.+ (str.to.re "QQ"))) (re.+ (re.* (str.to.re "R"))))))) (re.* (re.+ (re.* (re.union (re.union (re.* (str.to.re "SS")) (re.* (str.to.re "T"))) (re.union (re.* (str.to.re "U")) (re.+ (str.to.re "VV"))))))))) (re.union (re.* (re.+ (re.* (re.union (re.* (re.* (re.+ (str.to.re "W")))) (re.+ (re.union (re.+ (str.to.re "XXX")) (re.* (str.to.re "Y")))))))) (re.* (re.* (re.+ (re.union (re.* (re.+ (re.union (str.to.re "ZZZ") (str.to.re "!")))) (re.* (re.* (re.* (str.to.re """"""))))))))))))) (re.union (re.* (re.+ (re.* (re.union (re.* (re.* (re.* (re.+ (re.+ (re.* (re.+ (str.to.re "000")))))))) (re.union (re.+ (re.* (re.union (re.union (re.union (re.+ (str.to.re "1")) (re.+ (str.to.re "22"))) (re.* (re.* (str.to.re "3")))) (re.+ (re.+ (re.* (str.to.re "4"))))))) (re.* (re.union (re.union (re.* (re.+ (re.+ (str.to.re "55")))) (re.+ (re.union (re.* (str.to.re "66")) (re.* (str.to.re "7"))))) (re.union (re.* (re.union (re.+ (str.to.re "888")) (re.+ (str.to.re "9")))) (re.union (re.union (re.union (str.to.re "aa") (str.to.re "b")) (re.union (str.to.re "cc") (str.to.re "d"))) (re.union (re.* (str.to.re "e")) (re.union (str.to.re "fff") (str.to.re "g")))))))))))) (re.union (re.* (re.* (re.union (re.* (re.+ (re.+ (re.+ (re.* (re.+ (re.union (str.to.re "hh") (str.to.re "ii")))))))) (re.union (re.+ (re.union (re.+ (re.union (re.union (re.* (str.to.re "j")) (re.+ (str.to.re "kkk"))) (re.* (re.+ (str.to.re "l"))))) (re.+ (re.union (re.union (re.union (str.to.re "mm") (str.to.re "n")) (re.* (str.to.re "ooo"))) (re.* (re.+ (str.to.re "pp"))))))) (re.+ (re.* (re.+ (re.+ (re.* (re.union (str.to.re "q") (str.to.re "rrr"))))))))))) (re.union (re.union (re.+ (re.+ (re.union (re.union (re.union (re.+ (re.union (re.union (str.to.re "ss") (str.to.re "t")) (re.+ (str.to.re "uuu")))) (re.* (re.+ (re.union (str.to.re "vvv") (str.to.re "www"))))) (re.union (re.* (re.+ (re.* (str.to.re "xx")))) (re.+ (re.+ (re.* (str.to.re "yyy")))))) (re.+ (re.+ (re.+ (re.* (re.* (str.to.re "zzz"))))))))) (re.* (re.union (re.+ (re.* (re.+ (re.union (re.* (re.* (str.to.re "AAA"))) (re.* (re.+ (str.to.re "B"))))))) (re.union (re.union (re.* (re.+ (re.* (re.union (str.to.re "CCC") (str.to.re "DDD"))))) (re.union (re.+ (re.* (re.* (str.to.re "EEE")))) (re.* (re.* (re.+ (str.to.re "FF")))))) (re.union (re.* (re.* (re.* (re.* (str.to.re "G"))))) (re.* (re.* (re.union (re.union (str.to.re "H") (str.to.re "III")) (re.union (str.to.re "JJ") (str.to.re "KK")))))))))) (re.* (re.+ (re.+ (re.* (re.* (re.union (re.+ (re.+ (re.+ (str.to.re "LLL")))) (re.* (re.* (re.* (str.to.re "MM"))))))))))))))))
(assert (<= 15 (str.len var0)))
(check-sat)